FILENAME:   /home/mcs001/s132664/testsets/IP/miplib2017/neos-3755335-nizao.mps.gz
SETTINGS:   settings_final_nopeek_norelabel_extend_norestarts
TIMELIMIT:  7200
OUTPUTNAME: final_miplib_symretope_if_extended_generating_set_cpx_v802__settings_final_nopeek_norelabel_extend_norestarts__1__
BINNAME:    bin/sbcs.linux.x86_64.gnu.opt.cpx
BASENAME:   neos-3755335-nizao.mps.gz
SEED:       1
@01 /home/mcs001/s132664/testsets/IP/miplib2017/neos-3755335-nizao.mps.gz ===========
@02 neos-3755335-nizao.mps.gz
@03 1686656371
SCIP version 8.0.2 [precision: 8 byte] [memory: block] [mode: optimized] [LP solver: CPLEX 20.1.0.0] [GitHash: 5f0473c]
Copyright (C) 2002-2022 Konrad-Zuse-Zentrum fuer Informationstechnik Berlin (ZIB)

Symretope propagation methods - (c) Jasper van Doornmalen, Christopher Hojny.
[GitHash: 2fd0484]

reading parameter file <../settings/settings_final_nopeek_norelabel_extend_norestarts.set> ...

Changed settings:
limits/time = 7200
limits/restarts = 0
misc/usesymmetry = 1
randomization/randomseedshift = 1
constraints/orbisack/sepafreq = -1
constraints/symresack/sepafreq = -1
propagating/symmetry/addsymresacks = TRUE
propagating/symmetry/detectsubgroups = FALSE
propagating/symmetry/relabelsymretopes = 0
propagating/symmetry/extendgenerators = TRUE
propagating/symmetry/ofsymcomptiming = 0
constraints/symretope/sepafreq = -1
constraints/symretope/peek = FALSE


solving problem ...

original problem has 40938 variables (5226 bin, 0 int, 0 impl, 35712 cont) and 111026 constraints
presolving:
(round 1, exhaustive) 0 del vars, 0 del conss, 0 add conss, 0 chg bounds, 18 chg sides, 252 chg coeffs, 72104 upgd conss, 0 impls, 428 clqs
   (15.8s) probing: 1000/5226 (19.1%) - 0 fixings, 0 aggregations, 839072 implications, 0 bound changes
   (15.9s) probing: 1001/5226 (19.2%) - 0 fixings, 0 aggregations, 841418 implications, 0 bound changes
   (15.9s) probing aborted: 1000/1000 successive useless probings
   (17.4s) symmetry computation started: requiring (bin +, int +, cont +), (fixed: bin -, int -, cont -)
   (18.8s) symmetry computation finished: 12 generators found (max: 1500, log10 of symmetry group size: 4.3)
(round 2, exhaustive) 0 del vars, 12 del conss, 97 add conss, 0 chg bounds, 18 chg sides, 258 chg coeffs, 72104 upgd conss, 889039 impls, 24231 clqs
presolving (3 rounds: 3 fast, 3 medium, 3 exhaustive):
 0 deleted vars, 12 deleted constraints, 97 added constraints, 0 tightened bounds, 0 added holes, 18 changed sides, 288 changed coefficients
 889039 implications, 24231 cliques
presolved problem has 40938 variables (5226 bin, 0 int, 0 impl, 35712 cont) and 111111 constraints
  71424 constraints of type <varbound>
     54 constraints of type <knapsack>
    428 constraints of type <setppc>
  38922 constraints of type <linear>
     44 constraints of type <orbisack>
      5 constraints of type <symretope>
    234 constraints of type <logicor>
Presolving Time: 18.76

 time | node  | left  |LP iter|LP it/n|mem/heur|mdpt |vars |cons |rows |cuts |sepa|confs|strbr|  dualbound   | primalbound  |  gap   | compl. 
 21.7s|     1 |     0 |  1102 |     - |   831M |   0 |  40k| 111k| 111k|   0 |  0 |  25 |   0 | 5.003016e+01 |      --      |    Inf | unknown
 25.7s|     1 |     0 |  3880 |     - |   856M |   0 |  40k| 111k| 111k|  48 |  1 |  26 |   0 | 5.003016e+01 |      --      |    Inf | unknown
 26.7s|     1 |     0 |  4077 |     - |   868M |   0 |  40k| 111k| 111k|  90 |  2 |  27 |   0 | 5.003016e+01 |      --      |    Inf | unknown
 27.5s|     1 |     0 |  4181 |     - |   880M |   0 |  40k| 111k| 111k| 113 |  3 |  28 |   0 | 5.003016e+01 |      --      |    Inf | unknown
 28.3s|     1 |     0 |  4214 |     - |   893M |   0 |  40k| 111k| 111k| 123 |  4 |  30 |   0 | 5.003016e+01 |      --      |    Inf | unknown
 29.3s|     1 |     0 |  4325 |     - |   905M |   0 |  40k| 111k| 111k| 142 |  5 |  32 |   0 | 5.003016e+01 |      --      |    Inf | unknown
 30.0s|     1 |     0 |  4421 |     - |   917M |   0 |  40k| 111k| 111k| 157 |  6 |  34 |   0 | 5.003016e+01 |      --      |    Inf | unknown
 31.0s|     1 |     0 |  5026 |     - |   929M |   0 |  40k| 111k| 111k| 247 |  7 |  35 |   0 | 5.003016e+01 |      --      |    Inf | unknown
 32.2s|     1 |     0 |  5714 |     - |   943M |   0 |  40k| 111k| 111k| 326 |  8 |  37 |   0 | 5.003016e+01 |      --      |    Inf | unknown
 33.7s|     1 |     0 |  6603 |     - |   955M |   0 |  40k| 111k| 111k| 388 |  9 |  39 |   0 | 5.003016e+01 |      --      |    Inf | unknown
 35.3s|     1 |     0 |  7550 |     - |   967M |   0 |  40k| 111k| 111k| 459 | 10 |  40 |   0 | 5.003016e+01 |      --      |    Inf | unknown
 36.4s|     1 |     0 |  8169 |     - |   979M |   0 |  40k| 111k| 111k| 512 | 11 |  41 |   0 | 5.003016e+01 |      --      |    Inf | unknown
 50.0s|     1 |     0 | 10222 |     - |   990M |   0 |  40k| 111k| 111k| 512 | 11 |  52 |  20 | 5.003016e+01 |      --      |    Inf | unknown
 51.5s|     1 |     0 | 11000 |     - |  1001M |   0 |  40k| 111k| 111k| 543 | 12 |  54 |  20 | 5.003016e+01 |      --      |    Inf | unknown
 52.1s|     1 |     0 | 11273 |     - |  1002M |   0 |  40k| 111k| 111k| 568 | 13 |  55 |  20 | 5.003016e+01 |      --      |    Inf | unknown
 time | node  | left  |LP iter|LP it/n|mem/heur|mdpt |vars |cons |rows |cuts |sepa|confs|strbr|  dualbound   | primalbound  |  gap   | compl. 
 56.7s|     1 |     2 | 11273 |     - |  1004M |   0 |  40k| 111k| 111k| 568 | 13 |  56 |  40 | 5.003016e+01 |      --      |    Inf | unknown
L59.4s|     6 |     0 | 11343 | 424.6 |  lpface|   4 |  40k| 111k| 111k| 568 |  1 |  56 |  40 | 5.003016e+01 | 5.003016e+01 |   0.00%| 100.00%

SCIP Status        : problem is solved [optimal solution found]
Solving Time (sec) : 59.63
Solving Nodes      : 6
Primal Bound       : +5.00301565326000e+01 (1 solutions)
Dual Bound         : +5.00301565326000e+01
Gap                : 0.00 %
SCIP Status        : problem is solved [optimal solution found]
Total Time         :      60.37
  solving          :      59.63
  presolving       :      18.76 (included in solving)
  reading          :       0.74
  copying          :       0.71 (2 #copies) (minimal 0.35, maximal 0.36, average 0.35)
Original Problem   :
  Problem name     : neos-3755335-nizao
  Variables        : 40938 (5226 binary, 0 integer, 0 implicit integer, 35712 continuous)
  Constraints      : 111026 initial, 111026 maximal
  Objective        : minimize, 1488 non-zeros (abs.min = 0.015122, abs.max = 5.95504)
Presolved Problem  :
  Problem name     : t_neos-3755335-nizao
  Variables        : 40938 (5226 binary, 0 integer, 0 implicit integer, 35712 continuous)
  Constraints      : 111111 initial, 111161 maximal
  Objective        : minimize, 1488 non-zeros (abs.min = 0.015122, abs.max = 5.95504)
  Nonzeros         : 570702 constraint, 47842 clique table
Presolvers         :   ExecTime  SetupTime  Calls  FixedVars   AggrVars   ChgTypes  ChgBounds   AddHoles    DelCons    AddCons   ChgSides   ChgCoefs
  boundshift       :       0.00       0.00      0          0          0          0          0          0          0          0          0          0
  convertinttobin  :       0.00       0.00      0          0          0          0          0          0          0          0          0          0
  domcol           :       0.15       0.00      2          0          0          0          0          0          0          0          0          0
  dualagg          :       0.00       0.00      0          0          0          0          0          0          0          0          0          0
  dualcomp         :       0.13       0.00      2          0          0          0          0          0          0          0          0          0
  dualinfer        :       0.00       0.00      0          0          0          0          0          0          0          0          0          0
  dualsparsify     :       1.52       0.00      1          0          0          0          0          0          0          0          0          0
  gateextraction   :       0.00       0.00      2          0          0          0          0          0          0          0          0          0
  implics          :       0.01       0.00      3          0          0          0          0          0          0          0          0          0
  inttobinary      :       0.00       0.00      0          0          0          0          0          0          0          0          0          0
  qpkktref         :       0.00       0.00      0          0          0          0          0          0          0          0          0          0
  redvub           :       0.00       0.00      0          0          0          0          0          0          0          0          0          0
  sparsify         :       0.35       0.00      1          0          0          0          0          0          0          0          0          0
  stuffing         :       0.00       0.00      0          0          0          0          0          0          0          0          0          0
  trivial          :       0.00       0.00      3          0          0          0          0          0          0          0          0          0
  tworowbnd        :       0.00       0.00      0          0          0          0          0          0          0          0          0          0
  dualfix          :       0.01       0.00      3          0          0          0          0          0          0          0          0          0
  genvbounds       :       0.00       0.00      0          0          0          0          0          0          0          0          0          0
  probing          :      13.74       0.00      1          0          0          0          0          0          0          0          0          0
  pseudoobj        :       0.00       0.00      0          0          0          0          0          0          0          0          0          0
  symmetry         :       1.51       0.00      1          0          0          0          0          0          0         49          0          0
  vbounds          :       0.01       0.00      2          0          0          0          0          0          0          0          0          0
  varbound         :       0.14       0.00      4          0          0          0          0          0          0          0          0          0
  knapsack         :       0.01       0.00      6          0          0          0          0          0         12         48          0         36
  setppc           :       0.00       0.00      6          0          0          0          0          0          0          0          0          0
  linear           :       0.79       0.17      6          0          0          0          0          0          0          0         18        252
  orbisack         :       0.00       0.00      1          0          0          0          0          0          0          0          0          0
  symretope        :       0.00       0.00      1          0          0          0          0          0          0          0          0          0
  logicor          :       0.02       0.00      6          0          0          0          0          0          0          0          0          0
  benders          :       0.00       0.00      0          0          0          0          0          0          0          0          0          0
  components       :       0.12       0.00      1          0          0          0          0          0          0          0          0          0
  root node        :          -          -      -         39          -          -         39          -          -          -          -          -
Constraints        :     Number  MaxNumber  #Separate #Propagate    #EnfoLP    #EnfoRelax  #EnfoPS    #Check   #ResProp    Cutoffs    DomReds       Cuts    Applied      Conss   Children
  benderslp        :          0          0          0          0          6          0          0         11          0          0          0          0          0          0          0
  integral         :          0          0          0          0          6          0          0         11          0          0          2          0          0          1         10
  varbound         :      71424      71424         12       8610          0          0          0          5        225          0          0          0          0          0          0
  knapsack         :         54         54         12       8610          0          0          0          5         92          0          0          0          0          0          0
  setppc           :        428+       434         12       8610          0          0          0          3        141         10         62          0          0          0          0
  linear           :      38922+     38923         12       8600          0          0          0          1        484          5        436          0          0          0          0
  orbisack         :         44         44          0         67          0          0          0          1         24         17          3          0          0          0          0
  symretope        :          5          5          0         94          0          0          0          1          8          0          3          0          0          0          0
  logicor          :        234+       277         12       2964          0          0          0          1          7          3          5          5          0          0          0
  benders          :          0          0          0          0          0          0          0          2          0          0          0          0          0          0          0
  countsols        :          0          0          0          0          0          0          0          2          0          0          0          0          0          0          0
  components       :          0          0          0          0          0          0          0          0          0          0          0          0          0          0          0
Constraint Timings :  TotalTime  SetupTime   Separate  Propagate     EnfoLP     EnfoPS     EnfoRelax   Check    ResProp    SB-Prop
  benderslp        :       0.00       0.00       0.00       0.00       0.00       0.00       0.00       0.00       0.00       0.00
  integral         :       9.73       0.00       0.00       0.00       9.73       0.00       0.00       0.00       0.00       0.00
  varbound         :       2.23       0.00       0.37       1.75       0.00       0.00       0.00       0.07       0.00       0.03
  knapsack         :       0.06       0.00       0.01       0.05       0.00       0.00       0.00       0.00       0.00       0.00
  setppc           :       0.15       0.00       0.00       0.14       0.00       0.00       0.00       0.00       0.00       0.00
  linear           :       5.05       0.17       0.19       4.58       0.00       0.00       0.00       0.04       0.00       0.07
  orbisack         :       0.01       0.00       0.00       0.01       0.00       0.00       0.00       0.00       0.00       0.00
  symretope        :       0.00       0.00       0.00       0.00       0.00       0.00       0.00       0.00       0.00       0.00
  logicor          :       0.01       0.00       0.00       0.01       0.00       0.00       0.00       0.00       0.00       0.00
  benders          :       0.00       0.00       0.00       0.00       0.00       0.00       0.00       0.00       0.00       0.00
  countsols        :       0.00       0.00       0.00       0.00       0.00       0.00       0.00       0.00       0.00       0.00
  components       :       0.00       0.00       0.00       0.00       0.00       0.00       0.00       0.00       0.00       0.00
Propagators        : #Propagate   #ResProp    Cutoffs    DomReds
  dualfix          :          5          0          0          0
  genvbounds       :          0          0          0          0
  nlobbt           :          0          0          0          0
  obbt             :          0          0          0          0
  probing          :          0          0          0          0
  pseudoobj        :         40          0          0          0
  redcost          :         25          0          0          0
  rootredcost      :          1          0          0          0
  symmetry         :          0          0          0          0
  vbounds          :       3623          0          0          0
Propagator Timings :  TotalTime  SetupTime   Presolve  Propagate    ResProp    SB-Prop
  dualfix          :       0.02       0.00       0.01       0.01       0.00       0.00
  genvbounds       :       0.00       0.00       0.00       0.00       0.00       0.00
  nlobbt           :       0.00       0.00       0.00       0.00       0.00       0.00
  obbt             :       0.00       0.00       0.00       0.00       0.00       0.00
  probing          :      13.74       0.00      13.74       0.00       0.00       0.00
  pseudoobj        :       0.03       0.00       0.00       0.03       0.00       0.00
  redcost          :       0.07       0.00       0.00       0.07       0.00       0.00
  rootredcost      :       0.00       0.00       0.00       0.00       0.00       0.00
  symmetry         :       1.51       0.00       1.51       0.00       0.00       0.00
  vbounds          :       0.16       0.00       0.01       0.15       0.00       0.00
Orbital fixing     :
  vars fixed to 0  :          0
  vars fixed to 1  :          0
Conflict Analysis  :       Time      Calls    Success    DomReds  Conflicts   Literals    Reconvs ReconvLits   Dualrays   Nonzeros   LP Iters   (pool size: [10000,10000])
  propagation      :       0.00         24         23          -         54       11.2         12        3.2          -          -          -
  infeasible LP    :       0.00          1          1          -          1        1.0          0        0.0          1        4.0          0
  bound exceed. LP :       0.00          0          0          -          0        0.0          0        0.0          0        0.0          0
  strong branching :       0.00          0          0          -          0        0.0          0        0.0          -          -          0
  pseudo solution  :       0.00          0          0          -          0        0.0          0        0.0          -          -          -
  applied globally :       0.01          -          -          0         55        8.7          -          -          1          -          -
  applied locally  :          -          -          -          0          0        0.0          -          -          0          -          -
Separators         :   ExecTime  SetupTime      Calls  RootCalls    Cutoffs    DomReds  FoundCuts ViaPoolAdd  DirectAdd    Applied ViaPoolApp  DirectApp      Conss
  cut pool         :       0.01          -         24         24          -          -       3777       2022          -          -          -          -          -    (maximal pool size:       3777)
  aggregation      :       0.80       0.00         12         12          0          0         81         75          0          2          2          0          0
  > cmir           :          -          -          -          -          -          -          -         41          0          1          1          0          -
  > flowcover      :          -          -          -          -          -          -          -          0          0          0          0          0          -
  > knapsackcover  :          -          -          -          -          -          -          -         34          0          1          1          0          -
  cgmip            :       0.00       0.00          0          0          0          0          0          0          0          0          0          0          0
  clique           :       0.18       0.00         12         12          0          0         90        113          0         21         21          0          0
  closecuts        :       0.00       0.00          0          0          0          0          0          0          0          0          0          0          0
  convexproj       :       0.00       0.00          0          0          0          0          0          0          0          0          0          0          0
  disjunctive      :       0.00       0.00          0          0          0          0          0          0          0          0          0          0          0
  eccuts           :       0.00       0.00          0          0          0          0          0          0          0          0          0          0          0
  gauge            :       0.00       0.00          0          0          0          0          0          0          0          0          0          0          0
  gomory           :       2.19       0.00         10         10          0          0       1888        340          0        136        136          0          0
  > gomorymi       :          -          -          -          -          -          -          -        298          0        124        124          0          -
  > strongcg       :          -          -          -          -          -          -          -         42          0         12         12          0          -
  impliedbounds    :       0.07       0.00         12         12          0          6       1558       1348          0        404        404          0          0
  interminor       :       0.00       0.00          0          0          0          0          0          0          0          0          0          0          0
  intobj           :       0.00       0.00          0          0          0          0          0          0          0          0          0          0          0
  mcf              :       0.26       0.00          1          1          0          0          0          0          0          0          0          0          0
  minor            :       0.00       0.00          0          0          0          0          0          0          0          0          0          0          0
  mixing           :       0.05       0.00         12         12          0          0          0          0          0          0          0          0          0
  oddcycle         :       0.00       0.00          0          0          0          0          0          0          0          0          0          0          0
  rapidlearning    :       0.00       0.00          0          0          0          0          0          0          0          0          0          0          0
  rlt              :       0.00       0.00         10         10          0          0          0          0          0          0          0          0          0
  zerohalf         :       1.36       0.00         12         12          0          0        160        146          0          5          5          0          0
Cutselectors       :   ExecTime  SetupTime      Calls  RootCalls   Selected     Forced   Filtered  RootSelec   RootForc   RootFilt 
  hybrid           :       0.00       0.00         13         13        568          0       1459        568          0       1459
Pricers            :   ExecTime  SetupTime      Calls       Vars
  problem variables:       0.00          -          0          0
Branching Rules    :   ExecTime  SetupTime   BranchLP  BranchExt   BranchPS    Cutoffs    DomReds       Cuts      Conss   Children
  allfullstrong    :       0.00       0.00          0          0          0          0          0          0          0          0
  cloud            :       0.00       0.00          0          0          0          0          0          0          0          0
  distribution     :       0.00       0.00          0          0          0          0          0          0          0          0
  fullstrong       :       0.00       0.00          0          0          0          0          0          0          0          0
  inference        :       0.00       0.00          0          0          0          0          0          0          0          0
  leastinf         :       0.00       0.00          0          0          0          0          0          0          0          0
  lookahead        :       0.00       0.00          0          0          0          0          0          0          0          0
  mostinf          :       0.00       0.00          0          0          0          0          0          0          0          0
  multaggr         :       0.00       0.00          0          0          0          0          0          0          0          0
  nodereopt        :       0.00       0.00          0          0          0          0          0          0          0          0
  pscost           :       0.00       0.00          0          0          0          0          0          0          0          0
  random           :       0.00       0.00          0          0          0          0          0          0          0          0
  relpscost        :       9.73       0.00          6          0          0          0          2          0          1         10
  vanillafullstrong:       0.00       0.00          0          0          0          0          0          0          0          0
Primal Heuristics  :   ExecTime  SetupTime      Calls      Found       Best
  LP solutions     :       0.00          -          -          0          0
  relax solutions  :       0.00          -          -          0          0
  pseudo solutions :       0.00          -          -          0          0
  strong branching :       0.00          -          -          0          0
  actconsdiving    :       0.00       0.00          0          0          0
  adaptivediving   :       0.00       0.00          0          0          0
  alns             :       1.41       0.00          1          0          0
  bound            :       0.00       0.00          0          0          0
  clique           :       0.60       0.00          1          0          0
  coefdiving       :       0.00       0.00          0          0          0
  completesol      :       0.00       0.00          0          0          0
  conflictdiving   :       1.59       0.00          1          0          0
  crossover        :       0.00       0.00          0          0          0
  dins             :       0.00       0.00          0          0          0
  distributiondivin:       0.00       0.00          0          0          0
  dps              :       0.00       0.00          0          0          0
  dualval          :       0.00       0.00          0          0          0
  farkasdiving     :       3.61       0.00          1          0          0
  feaspump         :       2.55       0.00          1          0          0
  fixandinfer      :       0.00       0.00          0          0          0
  fracdiving       :       0.00       0.00          0          0          0
  gins             :       0.00       0.00          0          0          0
  guideddiving     :       0.00       0.00          0          0          0
  indicator        :       0.00       0.00          0          0          0
  intdiving        :       0.00       0.00          0          0          0
  intshifting      :       0.05       0.00          1          0          0
  linesearchdiving :       0.00       0.00          0          0          0
  localbranching   :       0.00       0.00          0          0          0
  locks            :       0.18       0.00          1          0          0
  lpface           :       2.07       0.00          1          1          1
  mpec             :       0.00       0.00          0          0          0
  multistart       :       0.00       0.00          0          0          0
  mutation         :       0.00       0.00          0          0          0
  nlpdiving        :       0.00       0.00          0          0          0
  objpscostdiving  :       0.00       0.00          0          0          0
  octane           :       0.00       0.00          0          0          0
  ofins            :       0.00       0.00          0          0          0
  oneopt           :       0.00       0.00          0          0          0
  padm             :       0.00       0.00          0          0          0
  proximity        :       0.00       0.00          0          0          0
  pscostdiving     :       0.00       0.00          0          0          0
  randrounding     :       2.54       0.00         15          0          0
  rens             :       1.42       0.00          1          0          0
  reoptsols        :       0.00       0.00          0          0          0
  repair           :       0.00       0.00          0          0          0
  rins             :       0.00       0.00          0          0          0
  rootsoldiving    :       0.00       0.00          0          0          0
  rounding         :       0.10       0.00         19          0          0
  shiftandpropagate:       0.42       0.00          1          0          0
  shifting         :       0.33       0.00         15          0          0
  simplerounding   :       0.00       0.00          0          0          0
  subnlp           :       0.00       0.00          0          0          0
  trivial          :       0.23       0.00          2          0          0
  trivialnegation  :       0.00       0.00          0          0          0
  trustregion      :       0.00       0.00          0          0          0
  trysol           :       0.00       0.00          0          0          0
  twoopt           :       0.00       0.00          0          0          0
  undercover       :       0.00       0.00          0          0          0
  vbounds          :       0.02       0.00          0          0          0
  veclendiving     :       0.00       0.00          0          0          0
  zeroobj          :       0.00       0.00          0          0          0
  zirounding       :       0.02       0.00          4          0          0
  other solutions  :          -          -          -          0          -
LP                 :       Time      Calls Iterations  Iter/call   Iter/sec  Time-0-It Calls-0-It    ItLimit
  primal LP        :       0.43          1          0       0.00       0.00       0.43          1
  dual LP          :       6.93         20       6779     376.61     978.08       0.04          2
  lex dual LP      :       0.00          0          0       0.00          -
  barrier LP       :       0.00          0          0       0.00          -       0.00          0
  resolve instable :       0.00          0          0       0.00          -
  diving/probing LP:       5.91         68       4564      67.12     772.08
  strong branching :       7.84         40       6198     154.95     790.20          -          -          0
    (at root node) :          -         40       6198     154.95          -
  conflict analysis:       0.00          0          0       0.00          -
B&B Tree           :
  number of runs   :          1
  nodes            :          6 (5 internal, 1 leaves)
  feasible leaves  :          0
  infeas. leaves   :          1
  objective leaves :          0
  nodes (total)    :          6 (5 internal, 1 leaves)
  nodes left       :          0
  max depth        :          4
  max depth (total):          4
  backtracks       :          0 (0.0%)
  early backtracks :          0 (0.0%)
  nodes exc. ref.  :          0 (0.0%)
  delayed cutoffs  :          0
  repropagations   :          0 (0 domain reductions, 0 cutoffs)
  avg switch length:       2.00
  switching time   :       0.44
Root Node          :
  First LP value   : +5.00301565326000e+01
  First LP Iters   :       1102 (1077.39 Iter/sec)
  First LP Time    :       1.02
  Final Dual Bound : +5.00301565326000e+01
  Final Root Iters :       9220
  Root LP Estimate : +5.00328999951776e+01
Solution           :
  Solutions found  :          1 (1 improvements)
  First Solution   : +5.00301565326000e+01   (in run 1, after 6 nodes, 59.29 seconds, depth 4, found by <lpface>)
  Gap First Sol.   :       0.00 %
  Gap Last Sol.    :       0.00 %
  Primal Bound     : +5.00301565326000e+01   (in run 1, after 6 nodes, 59.29 seconds, depth 4, found by <lpface>)
  Dual Bound       : +5.00301565326000e+01
  Gap              :       0.00 %
Integrals          :      Total       Avg%
  primal-dual      :    5935.91      99.54
  primal-ref       :          -          - (not evaluated)
  dual-ref         :          -          - (not evaluated)
written solution information to file <results/final_miplib_symretope_if_extended_generating_set_cpx_v802__settings_final_nopeek_norelabel_extend_norestarts__1__neos-3755335-nizao.mps.gz.sol>
@04 1686656432
